c array.sh: path:     /data/qbf/qbf20/PCNF/load_3c_comp_comp7_REAL.unsat.qdimacs
c array.sh: name:     load_3c_comp_comp7_REAL.unsat
c array.sh: task:     76
c array.sh: host:     c3n27
c array.sh: uname:    Linux c3n27 4.15.0-135-generic #139-Ubuntu SMP Mon Jan 18 17:38:24 UTC 2021 x86_64 x86_64 x86_64 GNU/Linux
c array.sh: start:    Tue Feb 16 22:45:50 CET 2021
c array.sh: noturbo:  1
c array.sh: governor: 32 performance
c array.sh: tmp:      1%
c array.sh: unzipped: /tmp/local-unzipped-18834727-76-load_3c_comp_comp7_REAL.unsat.cnf
using tmp directory:
  /tmp
running QBF solver...

/home/seidl/cert_tests/bin/ferp-models/ijtihad/ijtihad --dependencies=0 --wit_per_call=-1 --cex_per_call=-1 --log_phi=/tmp/ferpcert2914expanded.cnf /tmp/local-unzipped-18834727-76-load_3c_comp_comp7_REAL.unsat.cnf
c Options after parsing: 
c cex_per_call = 18446744073709551615
c wit_per_call = 18446744073709551615
c warmup = 1
c warmup_randoms = 0
c trimming_phi = 0
c trimming_ksi = 2
c trimming_interval = 200
c memory_limit = 3000000
c MySolverv970-glucose
-1 -2 -3 
1 2 3 
c Number of calls is: 0
c Layers in PHI: 0
c Layers in KSI: 0
c Running Ijtihad loop
c last restart ## conflicts  :  15 208 
c [glucose 4]
c [glucose 4]        calls            0         0.0 per second
c [glucose 4]     restarts            0         0.0 per second
c [glucose 4]    conflicts            0         0.0 per second
c [glucose 4]    decisions            0         0.0 per second
c [glucose 4] propagations            0         0.0 per second
c [glucose 4]
c last restart ## conflicts  :  0 2 
c Number of calls is: 0
c Layers in PHI: 2
c Layers in KSI: 2
c last restart ## conflicts  :  0 195 
c last restart ## conflicts  :  0 2 
c Number of calls is: 1
c Layers in PHI: 3
c Layers in KSI: 3
c last restart ## conflicts  :  0 194 
c last restart ## conflicts  :  1 3 
c Number of calls is: 2
c Layers in PHI: 4
c Layers in KSI: 4
c last restart ## conflicts  :  0 199 
c last restart ## conflicts  :  1 4 
c Number of calls is: 3
c Layers in PHI: 5
c Layers in KSI: 5
c last restart ## conflicts  :  63 133 
c [glucose 4]
c [glucose 4]        calls            4         3.0 per second
c [glucose 4]     restarts            4         3.0 per second
c [glucose 4]    conflicts            2         1.5 per second
c [glucose 4]    decisions           17        12.6 per second
c [glucose 4] propagations           28        20.7 per second
c [glucose 4]
c last restart ## conflicts  :  2 1 
c Number of calls is: 4
c Layers in PHI: 6
c Layers in KSI: 6
c sat_solver_phi calld 5 times, running for 5.97204 seconds.
c number of layers in PHI is 7
c sat_solver_ksi was running for 3.5e-05 seconds.
c number of layers in KSI is 6
c mysolver was running for 6.63068 seconds.
s cnf 0
solving done with exit code 20

QBF solver OK

running SAT Solver...

/tmp/ferpcert2914expanded.cnf
s UNSATISFIABLE

PROOF GENERATION OK

checking unsat proof

resolved 1 root and 1 empty clause
trace-size2: 4080330146

TRACE CHECK OK

running toferp...

ferp-size: 3864624442
TOFERP OK

checking FERP PROOF...

clean up and exit
c array.sh: end:      Tue Feb 16 23:00:51 CET 2021
